50 612
1 4
1 7
1 8
1 9
1 10
1 11
1 12
1 14
1 16
1 17
1 18
1 22
1 24
1 25
1 26
1 27
1 28
1 29
1 30
1 31
1 32
1 33
1 35
1 39
1 43
1 44
1 45
1 47
1 48
1 50
2 3
2 5
2 6
2 8
2 9
2 12
2 13
2 17
2 19
2 21
2 23
2 25
2 29
2 30
2 31
2 32
2 34
2 35
2 37
2 41
2 42
2 43
2 45
2 47
3 5
3 8
3 12
3 14
3 15
3 16
3 18
3 19
3 22
3 23
3 28
3 29
3 30
3 31
3 32
3 33
3 34
3 36
3 40
3 43
3 45
3 47
3 49
3 50
4 5
4 6
4 9
4 16
4 19
4 21
4 24
4 26
4 27
4 29
4 30
4 32
4 34
4 35
4 36
4 41
4 44
4 45
4 49
5 7
5 8
5 9
5 15
5 17
5 19
5 20
5 21
5 25
5 26
5 27
5 28
5 29
5 32
5 33
5 37
5 40
5 41
5 42
5 43
5 46
5 47
5 48
5 49
5 50
6 9
6 10
6 12
6 16
6 20
6 24
6 27
6 28
6 29
6 30
6 31
6 32
6 33
6 34
6 36
6 38
6 40
6 42
6 47
6 49
7 8
7 10
7 15
7 16
7 27
7 29
7 33
7 35
7 36
7 37
7 38
7 40
7 43
7 45
7 46
7 47
7 48
7 50
8 9
8 10
8 11
8 13
8 14
8 17
8 18
8 20
8 21
8 23
8 24
8 27
8 28
8 33
8 34
8 35
8 37
8 38
8 41
8 42
8 43
8 45
8 49
9 11
9 13
9 19
9 21
9 22
9 23
9 25
9 26
9 30
9 35
9 37
9 41
9 43
9 46
9 49
9 50
10 12
10 13
10 15
10 16
10 17
10 18
10 20
10 22
10 24
10 25
10 28
10 30
10 31
10 32
10 38
10 40
10 43
10 46
10 47
10 49
10 50
11 12
11 13
11 14
11 21
11 22
11 23
11 25
11 26
11 29
11 34
11 35
11 37
11 40
11 41
11 42
11 44
11 45
11 47
11 49
12 13
12 16
12 17
12 19
12 20
12 21
12 23
12 25
12 27
12 31
12 33
12 36
12 38
12 39
12 40
12 42
12 43
12 44
12 45
12 46
12 47
12 48
12 50
13 15
13 16
13 18
13 20
13 22
13 24
13 29
13 33
13 35
13 36
13 40
13 41
13 42
13 43
13 48
13 50
14 15
14 16
14 18
14 19
14 22
14 25
14 27
14 29
14 33
14 34
14 36
14 38
14 39
14 41
14 42
14 43
14 45
14 46
14 50
15 17
15 19
15 22
15 26
15 29
15 30
15 31
15 35
15 36
15 38
15 40
15 43
15 44
15 45
15 46
15 48
16 17
16 18
16 19
16 21
16 24
16 25
16 26
16 28
16 30
16 31
16 32
16 38
16 39
16 42
16 44
16 45
16 46
16 47
16 48
16 49
16 50
17 20
17 26
17 27
17 28
17 29
17 32
17 33
17 37
17 39
17 43
17 44
17 46
17 47
18 19
18 20
18 22
18 23
18 26
18 29
18 31
18 32
18 33
18 36
18 42
18 43
18 44
18 45
18 46
19 20
19 21
19 23
19 30
19 31
19 39
19 42
19 45
19 46
19 48
20 22
20 23
20 26
20 28
20 29
20 32
20 33
20 34
20 38
20 39
20 40
20 41
20 45
20 48
20 49
21 22
21 24
21 27
21 29
21 31
21 32
21 33
21 35
21 36
21 37
21 38
21 40
21 43
21 44
21 45
21 46
21 49
22 24
22 25
22 28
22 30
22 31
22 32
22 35
22 37
22 38
22 39
22 41
22 42
22 43
22 44
22 47
22 50
23 24
23 25
23 27
23 29
23 32
23 33
23 34
23 35
23 37
23 39
23 43
23 47
23 48
23 49
24 25
24 27
24 28
24 31
24 32
24 36
24 37
24 38
24 40
24 41
24 42
24 44
24 45
24 49
24 50
25 26
25 29
25 32
25 34
25 35
25 36
25 39
25 40
25 42
25 44
25 45
25 47
25 49
26 28
26 29
26 32
26 33
26 34
26 38
26 39
26 41
26 45
26 46
26 50
27 28
27 29
27 31
27 32
27 33
27 34
27 35
27 36
27 39
27 41
27 42
27 45
27 49
27 50
28 33
28 34
28 35
28 36
28 39
28 40
28 41
28 44
28 45
28 46
28 49
29 35
29 38
29 39
29 41
29 43
29 44
29 45
29 47
29 50
30 31
30 35
30 36
30 37
30 40
30 41
30 43
30 45
30 46
30 47
30 49
30 50
31 32
31 33
31 34
31 42
31 44
31 48
32 33
32 37
32 38
32 39
32 40
32 43
32 45
32 46
32 47
33 35
33 37
33 39
33 40
33 42
33 43
33 44
33 45
33 47
33 48
33 50
34 35
34 37
34 40
34 42
34 44
34 45
34 50
35 37
35 38
35 42
35 44
35 45
35 50
36 39
36 40
36 41
36 42
36 43
36 44
36 45
36 46
36 50
37 38
37 41
37 43
37 44
37 48
37 49
38 39
38 41
38 43
38 44
38 45
38 46
38 47
38 50
39 40
39 41
39 42
39 43
39 44
39 46
39 47
39 48
40 42
40 45
40 46
40 47
40 48
41 44
41 45
41 46
41 47
41 49
42 45
42 46
43 45
43 46
43 47
43 48
44 50
45 47
45 49
46 47
46 48
48 49
48 50
